100
1 2
1 4
1 16
1 17
1 21
1 25
1 34
1 36
1 42
1 44
1 46
1 49
1 56
1 58
1 62
1 70
1 71
1 76
1 80
1 86
1 89
1 92
1 97
1 100
2 5
2 12
2 14
2 15
2 20
2 22
2 24
2 29
2 35
2 37
2 40
2 50
2 51
2 57
2 62
2 68
2 69
2 72
2 80
2 81
2 83
2 92
2 93
2 96
2 98
2 99
3 5
3 9
3 13
3 15
3 16
3 20
3 29
3 33
3 39
3 40
3 41
3 49
3 50
3 52
3 53
3 55
3 56
3 57
3 58
3 62
3 68
3 70
3 71
3 74
3 76
3 80
3 83
3 89
3 95
4 10
4 15
4 16
4 25
4 36
4 42
4 46
4 47
4 50
4 54
4 60
4 68
4 71
4 72
4 73
4 76
4 77
4 82
4 83
4 84
4 85
4 88
4 94
5 6
5 10
5 21
5 25
5 28
5 35
5 38
5 39
5 40
5 42
5 43
5 48
5 54
5 55
5 57
5 59
5 60
5 61
5 66
5 76
5 77
5 82
5 96
5 97
5 98
6 12
6 13
6 17
6 18
6 19
6 22
6 25
6 26
6 27
6 29
6 31
6 33
6 34
6 42
6 44
6 49
6 53
6 62
6 65
6 66
6 67
6 68
6 81
6 89
6 92
6 94
6 98
6 99
7 12
7 13
7 14
7 21
7 23
7 24
7 30
7 41
7 43
7 49
7 53
7 57
7 59
7 66
7 68
7 72
7 75
7 83
7 85
7 89
7 92
8 13
8 15
8 16
8 29
8 30
8 33
8 34
8 36
8 40
8 51
8 55
8 65
8 67
8 71
8 72
8 74
8 77
8 80
8 89
8 90
8 92
8 93
8 94
8 95
8 98
9 16
9 20
9 24
9 26
9 39
9 41
9 43
9 51
9 53
9 58
9 61
9 64
9 65
9 68
9 70
9 81
9 89
9 95
9 98
10 12
10 13
10 14
10 27
10 29
10 34
10 37
10 38
10 43
10 50
10 60
10 66
10 73
10 79
10 82
10 91
10 93
10 94
10 100
11 13
11 14
11 17
11 21
11 23
11 24
11 25
11 27
11 37
11 48
11 52
11 56
11 57
11 63
11 64
11 66
11 69
11 76
11 80
11 81
11 87
11 88
11 90
11 96
12 13
12 14
12 15
12 25
12 26
12 28
12 30
12 31
12 36
12 42
12 43
12 45
12 54
12 57
12 59
12 60
12 65
12 73
12 74
12 79
12 80
12 82
12 83
12 90
12 94
12 95
13 16
13 19
13 21
13 22
13 25
13 31
13 34
13 38
13 41
13 43
13 44
13 46
13 47
13 49
13 52
13 57
13 61
13 63
13 64
13 65
13 67
13 68
13 69
13 70
13 71
13 72
13 77
13 79
13 92
13 98
14 16
14 17
14 19
14 22
14 29
14 30
14 34
14 46
14 47
14 49
14 56
14 63
14 67
14 71
14 72
14 76
14 81
14 85
14 91
14 92
14 94
14 96
14 98
14 100
15 16
15 17
15 23
15 24
15 34
15 49
15 51
15 53
15 66
15 75
15 83
15 87
15 88
15 93
15 95
15 99
16 17
16 30
16 31
16 35
16 36
16 42
16 44
16 58
16 59
16 61
16 62
16 63
16 81
16 84
16 89
16 91
16 92
16 95
16 96
17 20
17 22
17 29
17 34
17 39
17 44
17 46
17 55
17 56
17 60
17 62
17 66
17 67
17 68
17 73
17 80
17 83
17 85
17 95
18 29
18 33
18 36
18 37
18 40
18 45
18 55
18 57
18 58
18 61
18 63
18 73
18 85
18 90
18 91
18 96
18 99
18 100
19 26
19 50
19 53
19 55
19 60
19 63
19 65
19 68
19 69
19 70
19 71
19 73
19 77
19 78
19 79
19 84
19 85
19 93
19 95
19 97
19 100
20 25
20 31
20 33
20 36
20 37
20 40
20 41
20 48
20 50
20 52
20 54
20 55
20 58
20 66
20 68
20 71
20 73
20 86
20 87
20 89
20 92
20 94
21 22
21 28
21 33
21 35
21 42
21 44
21 45
21 52
21 58
21 60
21 62
21 70
21 74
21 76
21 85
21 89
21 92
21 95
22 23
22 26
22 30
22 31
22 35
22 40
22 52
22 54
22 62
22 64
22 76
22 78
22 81
22 86
22 91
22 94
22 95
22 99
23 27
23 29
23 33
23 38
23 39
23 44
23 47
23 48
23 51
23 55
23 59
23 64
23 68
23 74
23 79
23 89
23 93
23 96
23 97
23 100
24 26
24 29
24 36
24 40
24 46
24 49
24 50
24 56
24 59
24 60
24 73
24 76
24 90
24 99
25 26
25 33
25 39
25 40
25 41
25 42
25 43
25 44
25 48
25 52
25 55
25 63
25 65
25 67
25 70
25 71
25 76
25 81
25 82
25 83
25 86
25 87
25 88
25 97
25 98
26 38
26 40
26 42
26 44
26 47
26 51
26 53
26 56
26 58
26 60
26 61
26 66
26 69
26 85
26 89
26 91
27 30
27 31
27 33
27 34
27 41
27 49
27 50
27 52
27 59
27 60
27 63
27 69
27 70
27 71
27 72
27 82
27 84
27 87
27 88
27 91
27 96
28 29
28 30
28 31
28 35
28 37
28 40
28 41
28 45
28 52
28 58
28 64
28 66
28 69
28 70
28 77
28 86
28 87
28 88
28 91
28 92
28 93
28 97
28 98
29 31
29 36
29 43
29 45
29 52
29 59
29 62
29 64
29 72
29 73
29 87
29 89
29 91
29 96
30 40
30 49
30 50
30 55
30 60
30 71
30 75
30 80
30 81
30 90
30 100
31 32
31 35
31 40
31 45
31 58
31 72
31 79
31 87
31 91
32 34
32 36
32 38
32 44
32 45
32 46
32 54
32 55
32 56
32 61
32 67
32 68
32 84
32 85
32 91
32 93
32 94
32 95
32 97
33 34
33 35
33 42
33 43
33 47
33 49
33 51
33 53
33 58
33 60
33 61
33 66
33 67
33 68
33 74
33 76
33 85
33 89
33 90
33 91
33 97
33 100
34 40
34 43
34 48
34 50
34 53
34 56
34 62
34 69
34 72
34 73
34 76
34 88
34 94
34 95
35 38
35 41
35 49
35 51
35 55
35 56
35 58
35 60
35 63
35 65
35 67
35 69
35 70
35 71
35 76
35 83
35 91
35 98
36 37
36 38
36 48
36 49
36 53
36 55
36 61
36 63
36 64
36 71
36 73
36 77
36 82
36 85
36 88
36 91
36 92
36 94
36 99
37 38
37 42
37 47
37 58
37 72
37 74
37 76
37 77
37 78
37 82
37 85
37 87
37 88
37 89
37 91
37 96
38 39
38 41
38 42
38 47
38 51
38 53
38 59
38 61
38 62
38 70
38 71
38 75
38 81
38 83
38 84
38 92
38 94
39 41
39 44
39 45
39 50
39 53
39 56
39 61
39 66
39 70
39 74
39 75
39 81
39 82
39 85
39 92
39 98
40 42
40 43
40 48
40 56
40 58
40 61
40 69
40 73
40 82
40 85
40 87
40 89
40 94
40 95
40 97
40 99
41 43
41 55
41 56
41 58
41 63
41 65
41 69
41 74
41 76
41 83
41 90
41 92
41 97
41 100
42 43
42 55
42 57
42 59
42 62
42 64
42 65
42 70
42 71
42 78
42 82
42 85
42 86
42 87
42 88
42 91
42 93
43 44
43 47
43 54
43 55
43 58
43 59
43 61
43 62
43 66
43 68
43 75
43 78
43 87
43 89
43 90
43 99
44 46
44 61
44 67
44 83
44 98
45 47
45 48
45 50
45 53
45 62
45 66
45 68
45 73
45 74
45 76
45 78
45 95
45 96
45 100
46 52
46 56
46 58
46 59
46 62
46 70
46 74
46 78
46 79
46 81
46 82
46 84
46 87
46 93
46 95
46 96
46 97
46 99
47 49
47 50
47 51
47 55
47 67
47 69
47 76
47 80
47 85
47 88
47 90
47 97
48 56
48 57
48 61
48 63
48 71
48 72
48 76
48 78
48 79
48 83
48 89
48 91
48 95
49 53
49 54
49 55
49 57
49 62
49 64
49 70
49 74
49 77
49 79
49 80
49 89
49 94
49 99
50 57
50 61
50 65
50 70
50 71
50 72
50 76
50 80
50 88
50 90
50 93
50 99
51 54
51 59
51 61
51 64
51 66
51 70
51 74
51 76
51 77
51 81
51 82
51 84
51 91
51 94
51 96
52 55
52 62
52 64
52 66
52 67
52 72
52 82
52 88
52 91
52 93
52 95
52 98
52 99
53 54
53 56
53 63
53 64
53 66
53 69
53 72
53 80
53 82
53 84
53 86
53 87
53 89
53 90
53 94
53 100
54 57
54 71
54 73
54 76
54 79
54 82
54 85
54 94
54 96
55 58
55 60
55 61
55 63
55 69
55 71
55 74
55 75
55 77
55 79
55 80
55 96
55 98
56 61
56 66
56 74
56 76
56 81
56 85
56 93
57 58
57 59
57 62
57 66
57 67
57 69
57 70
57 75
57 80
57 86
57 90
57 93
57 99
58 70
58 72
58 79
58 81
58 82
58 86
58 89
58 90
58 100
59 63
59 70
59 74
59 80
59 86
59 98
60 68
60 69
60 75
60 77
60 79
60 83
60 87
60 91
60 96
61 65
61 66
61 67
61 71
61 86
61 94
61 97
62 79
62 86
62 87
62 91
62 92
62 94
62 98
63 64
63 68
63 71
63 74
63 83
63 85
63 86
63 89
63 94
63 95
63 96
64 65
64 67
64 68
64 69
64 70
64 71
64 78
64 86
64 90
64 95
64 99
65 72
65 76
65 85
65 86
65 94
65 97
65 99
66 67
66 71
66 73
66 77
66 80
66 81
66 83
66 87
66 89
66 90
66 92
66 94
66 95
66 97
67 69
67 76
67 79
67 89
67 92
67 95
67 96
67 97
67 98
68 71
68 72
68 74
68 75
68 77
68 80
68 82
68 89
68 93
69 70
69 71
69 73
69 77
69 82
69 85
69 90
69 93
69 97
69 100
70 74
70 80
70 82
70 83
70 90
70 91
70 94
70 96
70 97
70 99
71 73
71 84
71 91
71 98
71 100
72 77
72 81
72 82
72 84
72 86
72 93
72 96
72 97
72 100
73 78
73 84
73 92
73 96
74 76
74 81
74 83
74 97
75 81
75 85
75 86
75 87
77 78
77 80
77 83
77 87
78 79
78 80
78 81
78 94
78 98
79 81
79 87
79 90
79 95
79 96
79 97
80 81
80 83
80 100
81 82
81 85
81 87
81 96
81 97
82 85
82 86
82 88
82 89
82 90
82 97
82 98
83 88
83 91
83 93
83 94
84 86
84 91
84 94
84 95
84 97
84 100
86 87
86 95
86 98
87 91
87 96
87 100
88 89
88 97
88 99
89 90
89 92
89 93
89 95
90 95
90 97
90 98
91 98
92 94
92 98
93 95
93 96
93 99
93 100
94 100
95 100
96 98
96 99
99 100
